h=7;
b=[|9,-1,-1,1,-1,-1,5,2,7,-1|5,3,7,4,-1,1,-1,6,8,0|2,6,1,-1,-1,-1,-1,-1,-1,-1|5,-1,3,2,6,-1,-1,-1,0,9|-1,-1,9,5,7,8,6,2,3,4|6,8,-1,-1,1,5,4,-1,-1,-1|-1,4,-1,-1,0,9,6,1,2,-1|];
s=[35,34,28,30,28,32,41,33,31,23]